c 43_4_checker.cnf
c
c field = 43
c formula set type = 4_checker
c
p cnf 5 32
76 
78 
80 
82 
-74 
77 
79 
81 
83 
-75 
76 
78 
80 
82 
-86 
77 
79 
81 
83 
-87 
78 
80 
82 
86 
-76 
79 
81 
83 
87 
-77 
78 
80 
82 
86 
-88 
79 
81 
83 
87 
-89 
80 
82 
86 
88 
-78 
81 
83 
87 
89 
-79 
24 
54 
114 
144 
-174 
25 
55 
115 
145 
-175 
54 
114 
144 
174 
-24 
55 
115 
145 
175 
-25 
54 
114 
144 
174 
-204 
55 
115 
145 
175 
-205 
114 
144 
174 
204 
-54 
115 
145 
175 
205 
-55 
114 
144 
174 
204 
-234 
115 
145 
175 
205 
-235 
20 
52 
116 
148 
-84 
21 
53 
117 
149 
-85 
28 
56 
112 
140 
-168 
29 
57 
113 
141 
-169 
56 
112 
140 
168 
-28 
57 
113 
141 
169 
-29 
56 
112 
140 
168 
-196 
57 
113 
141 
169 
-197 
112 
140 
168 
196 
-56 
113 
141 
169 
197 
-57 
112 
140 
168 
196 
-224 
113 
141 
169 
197 
-225 
